# Solution for model GasLib-40
# Objective value = 5.4638181453236385e+01
loadshed[innode_1] 0
loadshed[innode_2] 0
loadshed[innode_3] 0
loadshed[innode_4] 0
loadshed[innode_5] 0
loadshed[innode_6] 0
loadshed[innode_7] 0
loadshed[innode_8] 0
loadshed[source_1] -7.4067193465665815e-02
loadshed[source_2] 8.3564321357386784e-02
loadshed[source_3] 3.3611667088995445e-01
loadshed[sink_1] 4.5700294704203592e-01
loadshed[sink_2] 0
loadshed[sink_3] 0
loadshed[sink_4] 0
loadshed[sink_5] 0
loadshed[sink_6] 0
loadshed[sink_7] 0
loadshed[sink_8] 0
loadshed[sink_9] 0
loadshed[sink_10] 0
loadshed[sink_11] 0
loadshed[sink_12] 1
loadshed[sink_13] 0
loadshed[sink_14] 0
loadshed[sink_15] 0
loadshed[sink_16] 0
loadshed[sink_17] 0
loadshed[sink_18] 0
loadshed[sink_19] 0
loadshed[sink_20] 0
loadshed[sink_21] 1
loadshed[sink_22] 0
loadshed[sink_23] 0
loadshed[sink_24] 8.8393044118133524e-01
loadshed[sink_25] 0
loadshed[sink_26] 0
loadshed[sink_27] 0
loadshed[sink_28] 0
loadshed[sink_29] 0
flow[source_1,sink_3] 1.6979958096698527e+02
flow[innode_1,sink_16] 1.6354166666666970e+01
flow[innode_6,sink_13] 9.5256667556241936e+00
flow[sink_13,sink_14] -6.8284999110424742e+00
flow[sink_14,sink_10] -2.3182666577709142e+01
flow[sink_25,sink_26] 1.0447818589877885e+02
flow[sink_26,sink_9] 1.6354166666669244e+01
flow[sink_9,sink_18] 0
flow[sink_26,sink_4] 7.1769852565442875e+01
flow[sink_4,sink_20] 5.5415685898776360e+01
flow[sink_18,sink_6] -1.6354166666667879e+01
flow[sink_25,innode_8] -1.3709124763364892e+02
flow[sink_6,sink_7] -5.7942764303584568e+01
flow[sink_6,sink_22] 2.5234430970250038e+01
flow[sink_7,sink_24] 1.8982209098469136e+00
flow[sink_22,sink_1] 8.8802643035833722e+00
flow[sink_24,sink_21] 0
flow[sink_21,sink_12] 0
flow[sink_7,sink_5] -7.6195151880098152e+01
flow[sink_5,sink_17] -9.2549318546764823e+01
flow[sink_17,sink_4] 0
flow[sink_17,sink_8] -1.0890348521343151e+02
flow[sink_3,sink_23] 16.3541666666697
flow[sink_8,sink_20] -1.2525765188009814e+02
flow[sink_25,sink_20] 8.6196132647988549e+01
flow[sink_25,sink_15] -7.9462904335409533e+01
flow[sink_15,sink_29] -5.4484243312101263e+01
flow[sink_29,sink_28] 1.6354166666667879e+01
flow[sink_29,sink_2] 57.6869943566416
flow[sink_2,sink_15] 4.1332827689974934e+01
flow[sink_29,innode_7] -144.879571002077
flow[innode_4,sink_19] 0
flow[sink_19,innode_3] 3.5255336343239868e+01
flow[innode_4,innode_5] 1.0495349991104295e+02
flow[sink_27,innode_5] -1.0495349991104295e+02
flow[sink_27,sink_19] 8.8599333244376282e+01
flow[sink_10,sink_11] 3.2708333333333641e+01
flow[sink_10,innode_2] -3.6989830234469579e+01
flow[sink_10,innode_3] -3.5255336343239868e+01
flow[innode_6,sink_25] -9.5256667556241936e+00
flow[sink_11,innode_1] 1.6354166666666970e+01
flow[sink_19,innode_2] 3.6989830234469579e+01
flow[source_3,innode_4] 1.0495349991104295e+02
flow[source_2,innode_7] 144.879571002077
flow[sink_3,innode_8] 1.3709124763364892e+02
pressure[innode_1] 7.6061110323758115e+01
pressure[innode_2] 7.8167876932255751e+01
pressure[innode_3] 7.8089807982157410e+01
pressure[innode_4] 81.01325
pressure[innode_5] 8.0941057448545990e+01
pressure[innode_6] 7.5156597280771123e+01
pressure[innode_7] 81.01325
pressure[innode_8] 8.0445674866618418e+01
pressure[source_1] 81.01325
pressure[source_2] 81.01325
pressure[source_3] 81.01325
pressure[sink_1] 1.0132500000000002e+00
pressure[sink_2] 7.5677012369986144e+01
pressure[sink_3] 8.0445674866618418e+01
pressure[sink_4] 5.8673255200715133e+01
pressure[sink_5] 3.4875539323124450e+01
pressure[sink_6] 2.3911554639175123e+00
pressure[sink_7] 3.1865715031594610e+00
pressure[sink_8] 4.5879006010569938e+01
pressure[sink_9] 6.6819420920613709e+01
pressure[sink_10] 7.6212811631361660e+01
pressure[sink_11] 7.6061110323758115e+01
pressure[sink_12] 1.01325
pressure[sink_13] 7.5104083871834163e+01
pressure[sink_14] 7.5116304054084551e+01
pressure[sink_15] 7.5542069797186869e+01
pressure[sink_16] 7.5039460488940435e+01
pressure[sink_17] 4.1769794589169784e+01
pressure[sink_18] 1.9544505211642726e+00
pressure[sink_19] 7.8167876932255751e+01
pressure[sink_20] 5.4607702814304346e+01
pressure[sink_21] 1.01325
pressure[sink_22] 1.5908735093263813e+00
pressure[sink_23] 8.0280956854958632e+01
pressure[sink_24] 1.01325
pressure[sink_25] 7.5156597280771123e+01
pressure[sink_26] 6.7798260004556127e+01
pressure[sink_27] 80.0701373324997
pressure[sink_28] 7.6843006767144587e+01
pressure[sink_29] 7.7138289040761762e+01
interdiction[source_1,sink_3] 0
interdiction[innode_1,sink_16] 0
interdiction[innode_6,sink_13] 0
interdiction[sink_13,sink_14] 0
interdiction[sink_14,sink_10] 0
interdiction[sink_25,sink_26] 0
interdiction[sink_26,sink_9] 0
interdiction[sink_9,sink_18] 1
interdiction[sink_26,sink_4] 0
interdiction[sink_4,sink_20] 0
interdiction[sink_18,sink_6] 0
interdiction[sink_25,innode_8] 0
interdiction[sink_6,sink_7] 0
interdiction[sink_6,sink_22] 0
interdiction[sink_7,sink_24] 0
interdiction[sink_22,sink_1] 0
interdiction[sink_24,sink_21] 0
interdiction[sink_21,sink_12] 0
interdiction[sink_7,sink_5] 0
interdiction[sink_5,sink_17] 0
interdiction[sink_17,sink_4] 1
interdiction[sink_17,sink_8] 0
interdiction[sink_3,sink_23] 0
interdiction[sink_8,sink_20] 0
interdiction[sink_25,sink_20] 0
interdiction[sink_25,sink_15] 0
interdiction[sink_15,sink_29] 0
interdiction[sink_29,sink_28] 0
interdiction[sink_29,sink_2] 0
interdiction[sink_2,sink_15] 0
interdiction[sink_29,innode_7] 0
interdiction[innode_4,sink_19] 1
interdiction[sink_19,innode_3] 0
interdiction[innode_4,innode_5] 0
interdiction[sink_27,innode_5] 0
interdiction[sink_27,sink_19] 0
interdiction[sink_10,sink_11] 0
interdiction[sink_10,innode_2] 0
interdiction[sink_10,innode_3] 0
interdiction[innode_6,sink_25] 0
interdiction[sink_11,innode_1] 0
interdiction[sink_19,innode_2] 0
interdiction[source_3,innode_4] 0
interdiction[source_2,innode_7] 0
interdiction[sink_3,innode_8] 0
WCcheckFlow[source_1,sink_3] 39
WCcheckFlow[innode_1,sink_16] 1
WCcheckFlow[innode_6,sink_13] 13
WCcheckFlow[sink_13,sink_14] 12
WCcheckFlow[sink_14,sink_10] 11
WCcheckFlow[sink_25,sink_26] 15
WCcheckFlow[sink_26,sink_9] 1
WCcheckFlow[sink_9,sink_18] 0
WCcheckFlow[sink_26,sink_4] 13
WCcheckFlow[sink_4,sink_20] 12
WCcheckFlow[sink_18,sink_6] -1
WCcheckFlow[sink_25,innode_8] -36
WCcheckFlow[sink_6,sink_7] -4
WCcheckFlow[sink_6,sink_22] 2
WCcheckFlow[sink_7,sink_24] 3
WCcheckFlow[sink_22,sink_1] 1
WCcheckFlow[sink_24,sink_21] 2
WCcheckFlow[sink_21,sink_12] 1
WCcheckFlow[sink_7,sink_5] -8
WCcheckFlow[sink_5,sink_17] -9
WCcheckFlow[sink_17,sink_4] 0
WCcheckFlow[sink_17,sink_8] -10
WCcheckFlow[sink_3,sink_23] 1
WCcheckFlow[sink_8,sink_20] -11
WCcheckFlow[sink_25,sink_20] 0
WCcheckFlow[sink_25,sink_15] 6
WCcheckFlow[sink_15,sink_29] 5
WCcheckFlow[sink_29,sink_28] 1
WCcheckFlow[sink_29,sink_2] 1
WCcheckFlow[sink_2,sink_15] 0
WCcheckFlow[sink_29,innode_7] 2
WCcheckFlow[innode_4,sink_19] 0
WCcheckFlow[sink_19,innode_3] -5
WCcheckFlow[innode_4,innode_5] -2
WCcheckFlow[sink_27,innode_5] 3
WCcheckFlow[sink_27,sink_19] -4
WCcheckFlow[sink_10,sink_11] 3
WCcheckFlow[sink_10,innode_2] 1
WCcheckFlow[sink_10,innode_3] 6
WCcheckFlow[innode_6,sink_25] -14
WCcheckFlow[sink_11,innode_1] 2
WCcheckFlow[sink_19,innode_2] 0
WCcheckFlow[source_3,innode_4] -1
WCcheckFlow[source_2,innode_7] -1
WCcheckFlow[sink_3,innode_8] 37
